\ENCODING=ISO-8859-1
\Problem name: ilog.cplex

Maximize
 obj: 949 x(0)#0 + 754 x(1)#1 + 1040 x(2)#2 + 911 x(3)#3 + 731 x(4)#4
      + 580 x(5)#5 + 626 x(6)#6 + 784 x(7)#7 + 777 x(8)#8 + 579 x(9)#9
      + 744 x(10)#10 + 579 x(11)#11 + 462 x(12)#12 + 1030 x(13)#13
      + 676 x(14)#14 + 849 x(15)#15 + 1059 x(16)#16 + 1047 x(17)#17
      + 732 x(18)#18 + 761 x(19)#19 + 892 x(20)#20 + 466 x(21)#21
      + 851 x(22)#22 + 742 x(23)#23 + 732 x(24)#24 + 943 x(25)#25
      + 890 x(26)#26 + 619 x(27)#27 + 969 x(28)#28 + 661 x(29)#29
      + 640 x(30)#30 + 819 x(31)#31 + 659 x(32)#32 + 552 x(33)#33
      + 922 x(34)#34 + 865 x(35)#35 + 1057 x(36)#36 + 996 x(37)#37
      + 382 x(38)#38 + 851 x(39)#39 + 410 x(40)#40 + 661 x(41)#41
      + 683 x(42)#42 + 753 x(43)#43 + 623 x(44)#44 + 640 x(45)#45
      + 684 x(46)#46 + 656 x(47)#47 + 871 x(48)#48 + 1005 x(49)#49
      + 985 x(50)#50 + 588 x(51)#51 + 549 x(52)#52 + 798 x(53)#53
      + 929 x(54)#54 + 949 x(55)#55 + 877 x(56)#56 + 1080 x(57)#57
      + 737 x(58)#58 + 801 x(59)#59 + 789 x(60)#60 + 663 x(61)#61
      + 934 x(62)#62 + 992 x(63)#63 + 1014 x(64)#64 + 881 x(65)#65
      + 402 x(66)#66 + 487 x(67)#67 + 985 x(68)#68 + 515 x(69)#69
      + 479 x(70)#70 + 554 x(71)#71 + 660 x(72)#72 + 920 x(73)#73
      + 509 x(74)#74 + 624 x(75)#75 + 819 x(76)#76 + 656 x(77)#77
      + 921 x(78)#78 + 819 x(79)#79 + 895 x(80)#80 + 704 x(81)#81
      + 654 x(82)#82 + 699 x(83)#83 + 611 x(84)#84 + 439 x(85)#85
      + 550 x(86)#86 + 429 x(87)#87 + 843 x(88)#88 + 807 x(89)#89
      + 986 x(90)#90 + 651 x(91)#91 + 632 x(92)#92 + 1062 x(93)#93
      + 992 x(94)#94 + 678 x(95)#95 + 653 x(96)#96 + 650 x(97)#97
      + 786 x(98)#98 + 574 x(99)#99
Subject To
 c1:  322 x(0)#0 + 764 x(1)#1 + 350 x(2)#2 + 539 x(3)#3 + 319 x(4)#4
      + 810 x(5)#5 + 996 x(6)#6 + 713 x(7)#7 + 982 x(8)#8 + 495 x(9)#9
      + 389 x(10)#10 + 175 x(11)#11 + 894 x(12)#12 + 959 x(13)#13 + 26 x(14)#14
      + 326 x(15)#15 + 528 x(16)#16 + 823 x(17)#17 + 568 x(18)#18
      + 533 x(19)#19 + 486 x(20)#20 + 437 x(21)#21 + 186 x(22)#22
      + 800 x(23)#23 + 720 x(24)#24 + 35 x(25)#25 + 686 x(26)#26 + 679 x(27)#27
      + 518 x(28)#28 + 967 x(29)#29 + 43 x(30)#30 + 228 x(31)#31 + 932 x(32)#32
      + 852 x(33)#33 + 934 x(34)#34 + 834 x(35)#35 + 273 x(36)#36
      + 613 x(37)#37 + 70 x(38)#38 + 518 x(39)#39 + 30 x(40)#40 + 95 x(41)#41
      + 46 x(42)#42 + 46 x(43)#43 + 999 x(44)#44 + 716 x(45)#45 + 44 x(46)#46
      + 324 x(47)#47 + 843 x(48)#48 + 55 x(49)#49 + 451 x(50)#50 + 929 x(51)#51
      + 907 x(52)#52 + 659 x(53)#53 + 932 x(54)#54 + 194 x(55)#55
      + 316 x(56)#56 + 193 x(57)#57 + 165 x(58)#58 + 372 x(59)#59
      + 620 x(60)#60 + 381 x(61)#61 + 104 x(62)#62 + 78 x(63)#63 + 791 x(64)#64
      + 160 x(65)#65 + 50 x(66)#66 + 922 x(67)#67 + 910 x(68)#68 + 116 x(69)#69
      + 327 x(70)#70 + 515 x(71)#71 + 964 x(72)#72 + 625 x(73)#73 + 48 x(74)#74
      + 470 x(75)#75 + 257 x(76)#76 + 546 x(77)#77 + 786 x(78)#78
      + 416 x(79)#79 + 746 x(80)#80 + 550 x(81)#81 + 949 x(82)#82
      + 740 x(83)#83 + 623 x(84)#84 + 352 x(85)#85 + 282 x(86)#86
      + 665 x(87)#87 + 562 x(88)#88 + 990 x(89)#89 + 666 x(90)#90
      + 780 x(91)#91 + 592 x(92)#92 + 337 x(93)#93 + 429 x(94)#94
      + 635 x(95)#95 + 713 x(96)#96 + 705 x(97)#97 + 873 x(98)#98
      + 269 x(99)#99 <= 39137
 c2:  183 x(0)#0 + 694 x(1)#1 + 671 x(2)#2 + 834 x(3)#3 + 24 x(4)#4
      + 238 x(5)#5 + 100 x(6)#6 + 806 x(7)#7 + 100 x(8)#8 + 330 x(9)#9
      + 437 x(10)#10 + 532 x(11)#11 + 14 x(12)#12 + 335 x(13)#13 + 872 x(14)#14
      + 260 x(15)#15 + 354 x(16)#16 + 941 x(17)#17 + 578 x(18)#18
      + 213 x(19)#19 + 810 x(20)#20 + 201 x(21)#21 + 676 x(22)#22
      + 713 x(23)#23 + 481 x(24)#24 + 682 x(25)#25 + 796 x(26)#26
      + 315 x(27)#27 + 740 x(28)#28 + 54 x(29)#29 + 612 x(30)#30 + x(31)#31
      + 811 x(32)#32 + 123 x(33)#33 + 581 x(34)#34 + 345 x(35)#35
      + 979 x(36)#36 + 333 x(37)#37 + 938 x(38)#38 + 773 x(39)#39
      + 265 x(40)#40 + 347 x(41)#41 + 597 x(42)#42 + 38 x(43)#43 + 646 x(44)#44
      + 287 x(45)#45 + 594 x(46)#46 + 914 x(47)#47 + 125 x(48)#48
      + 785 x(49)#49 + 277 x(50)#50 + 582 x(51)#51 + 405 x(52)#52
      + 618 x(53)#53 + 947 x(54)#54 + 801 x(55)#55 + 943 x(56)#56
      + 665 x(57)#57 + 91 x(58)#58 + 974 x(59)#59 + 63 x(60)#60 + 96 x(61)#61
      + 971 x(62)#62 + 303 x(63)#63 + 586 x(64)#64 + 812 x(65)#65
      + 258 x(66)#66 + 897 x(67)#67 + 444 x(68)#68 + 399 x(69)#69
      + 562 x(70)#70 + 452 x(71)#71 + 486 x(72)#72 + 45 x(73)#73 + 977 x(74)#74
      + 816 x(75)#75 + 562 x(76)#76 + 1000 x(77)#77 + 148 x(78)#78
      + 182 x(79)#79 + 494 x(80)#80 + 644 x(81)#81 + 482 x(82)#82
      + 955 x(83)#83 + 74 x(84)#84 + 122 x(85)#85 + 961 x(86)#86 + 38 x(87)#87
      + 402 x(88)#88 + 397 x(89)#89 + 619 x(90)#90 + 515 x(91)#91 + 98 x(92)#92
      + 966 x(93)#93 + 686 x(94)#94 + 487 x(95)#95 + 908 x(96)#96
      + 640 x(97)#97 + 710 x(98)#98 + 315 x(99)#99 <= 38215
 c3:  794 x(0)#0 + 939 x(1)#1 + 699 x(2)#2 + 516 x(3)#3 + 181 x(4)#4
      + 273 x(5)#5 + 170 x(6)#6 + 720 x(7)#7 + 138 x(8)#8 + 922 x(9)#9
      + 901 x(10)#10 + 440 x(11)#11 + 167 x(12)#12 + 983 x(13)#13
      + 410 x(14)#14 + 798 x(15)#15 + 305 x(16)#16 + 608 x(17)#17
      + 228 x(18)#18 + 774 x(19)#19 + 658 x(20)#20 + 231 x(21)#21 + 27 x(22)#22
      + 980 x(23)#23 + 181 x(24)#24 + 353 x(25)#25 + 452 x(26)#26
      + 457 x(27)#27 + 946 x(28)#28 + 352 x(29)#29 + 129 x(30)#30
      + 397 x(31)#31 + 863 x(32)#32 + 474 x(33)#33 + 878 x(34)#34
      + 227 x(35)#35 + 997 x(36)#36 + 814 x(37)#37 + 184 x(38)#38
      + 583 x(39)#39 + 206 x(40)#40 + 748 x(41)#41 + 718 x(42)#42
      + 120 x(43)#43 + 79 x(44)#44 + 361 x(45)#45 + 925 x(46)#46 + 246 x(47)#47
      + 738 x(48)#48 + 525 x(49)#49 + 757 x(50)#50 + 954 x(51)#51
      + 280 x(52)#52 + 150 x(53)#53 + 148 x(54)#54 + 456 x(55)#55
      + 104 x(56)#56 + 728 x(57)#57 + 766 x(58)#58 + 477 x(59)#59
      + 242 x(60)#60 + 395 x(61)#61 + 50 x(62)#62 + 688 x(63)#63 + 867 x(64)#64
      + 610 x(65)#65 + 123 x(66)#66 + 210 x(67)#67 + 958 x(68)#68
      + 621 x(69)#69 + 603 x(70)#70 + 677 x(71)#71 + 54 x(72)#72 + 726 x(73)#73
      + 959 x(74)#74 + 782 x(75)#75 + 310 x(76)#76 + 811 x(77)#77
      + 770 x(78)#78 + 715 x(79)#79 + 237 x(80)#80 + 336 x(81)#81 + 51 x(82)#82
      + 650 x(83)#83 + 443 x(84)#84 + 770 x(85)#85 + 390 x(86)#86 + 7 x(87)#87
      + 884 x(88)#88 + 116 x(89)#89 + 620 x(90)#90 + 635 x(91)#91
      + 110 x(92)#92 + 82 x(93)#93 + 658 x(94)#94 + 172 x(95)#95 + 12 x(96)#96
      + 206 x(97)#97 + 417 x(98)#98 + 450 x(99)#99 <= 36789
 c4:  624 x(0)#0 + 509 x(1)#1 + 962 x(2)#2 + 322 x(3)#3 + 355 x(4)#4
      + 657 x(5)#5 + 479 x(6)#6 + 346 x(7)#7 + 477 x(8)#8 + 997 x(9)#9
      + 338 x(10)#10 + 60 x(11)#11 + 819 x(12)#12 + 290 x(13)#13 + 415 x(14)#14
      + 759 x(15)#15 + 627 x(16)#16 + 180 x(17)#17 + 577 x(18)#18
      + 600 x(19)#19 + 688 x(20)#20 + 324 x(21)#21 + 501 x(22)#22
      + 147 x(23)#23 + 237 x(24)#24 + 964 x(25)#25 + 552 x(26)#26
      + 577 x(27)#27 + 964 x(28)#28 + 668 x(29)#29 + 81 x(30)#30 + 521 x(31)#31
      + 396 x(32)#32 + 535 x(33)#33 + 142 x(34)#34 + 743 x(35)#35
      + 308 x(36)#36 + 588 x(37)#37 + 400 x(38)#38 + 556 x(39)#39
      + 266 x(40)#40 + 517 x(41)#41 + 133 x(42)#42 + 883 x(43)#43
      + 490 x(44)#44 + 722 x(45)#45 + 881 x(46)#46 + 767 x(47)#47
      + 384 x(48)#48 + 331 x(49)#49 + 644 x(50)#50 + 253 x(51)#51
      + 908 x(52)#52 + 712 x(53)#53 + 930 x(54)#54 + 821 x(55)#55
      + 311 x(56)#56 + 921 x(57)#57 + 141 x(58)#58 + 375 x(59)#59
      + 769 x(60)#60 + 188 x(61)#61 + 395 x(62)#62 + 592 x(63)#63
      + 209 x(64)#64 + 850 x(65)#65 + 135 x(66)#66 + 674 x(67)#67
      + 497 x(68)#68 + 424 x(69)#69 + 639 x(70)#70 + 52 x(71)#71 + 439 x(72)#72
      + 605 x(73)#73 + 539 x(74)#74 + 990 x(75)#75 + 180 x(76)#76
      + 217 x(77)#77 + 209 x(78)#78 + 291 x(79)#79 + 338 x(80)#80
      + 880 x(81)#81 + 712 x(82)#82 + 956 x(83)#83 + 624 x(84)#84
      + 889 x(85)#85 + 155 x(86)#86 + 593 x(87)#87 + 397 x(88)#88
      + 306 x(89)#89 + 785 x(90)#90 + 478 x(91)#91 + 237 x(92)#92
      + 279 x(93)#93 + 134 x(94)#94 + 727 x(95)#95 + 143 x(96)#96
      + 310 x(97)#97 + 348 x(98)#98 + 595 x(99)#99 <= 37841
 c5:  962 x(0)#0 + 780 x(1)#1 + 543 x(2)#2 + 762 x(3)#3 + 827 x(4)#4
      + 965 x(5)#5 + 587 x(6)#6 + 935 x(7)#7 + 40 x(8)#8 + 142 x(9)#9
      + 494 x(10)#10 + 539 x(11)#11 + 186 x(12)#12 + 114 x(13)#13
      + 709 x(14)#14 + 374 x(15)#15 + 836 x(16)#16 + 782 x(17)#17
      + 455 x(18)#18 + 454 x(19)#19 + 861 x(20)#20 + 870 x(21)#21
      + 956 x(22)#22 + 310 x(23)#23 + 96 x(24)#24 + 700 x(25)#25 + 643 x(26)#26
      + 278 x(27)#27 + 510 x(28)#28 + 172 x(29)#29 + 838 x(30)#30
      + 428 x(31)#31 + 968 x(32)#32 + 128 x(33)#33 + 790 x(34)#34
      + 277 x(35)#35 + 334 x(36)#36 + 628 x(37)#37 + 190 x(38)#38
      + 244 x(39)#39 + 606 x(40)#40 + 185 x(41)#41 + 257 x(42)#42
      + 311 x(43)#43 + 926 x(44)#44 + 258 x(45)#45 + 746 x(46)#46
      + 684 x(47)#47 + 537 x(48)#48 + 872 x(49)#49 + 375 x(50)#50
      + 526 x(51)#51 + 377 x(52)#52 + 766 x(53)#53 + 237 x(54)#54
      + 503 x(55)#55 + 992 x(56)#56 + 532 x(57)#57 + 690 x(58)#58
      + 492 x(59)#59 + 766 x(60)#60 + 859 x(61)#61 + 237 x(62)#62 + 68 x(63)#63
      + 697 x(64)#64 + 189 x(65)#65 + 789 x(66)#66 + 15 x(67)#67 + 937 x(68)#68
      + 634 x(69)#69 + 139 x(70)#70 + 654 x(71)#71 + 175 x(72)#72
      + 819 x(73)#73 + 585 x(74)#74 + 534 x(75)#75 + 168 x(76)#76
      + 935 x(77)#77 + 816 x(78)#78 + 804 x(79)#79 + 869 x(80)#80
      + 886 x(81)#81 + 419 x(82)#82 + 520 x(83)#83 + 992 x(84)#84 + 81 x(85)#85
      + 861 x(86)#86 + 433 x(87)#87 + 334 x(88)#88 + 870 x(89)#89
      + 610 x(90)#90 + 443 x(91)#91 + 136 x(92)#92 + 964 x(93)#93
      + 592 x(94)#94 + 923 x(95)#95 + 791 x(96)#96 + 235 x(97)#97
      + 444 x(98)#98 + 215 x(99)#99 <= 41263
 c6:  914 x(0)#0 + 120 x(1)#1 + 340 x(2)#2 + 645 x(3)#3 + 961 x(4)#4
      + 995 x(5)#5 + 296 x(6)#6 + 194 x(7)#7 + 287 x(8)#8 + 706 x(9)#9
      + 23 x(10)#10 + 863 x(11)#11 + 970 x(12)#12 + 641 x(13)#13 + 891 x(14)#14
      + 275 x(15)#15 + 986 x(16)#16 + 304 x(17)#17 + 707 x(18)#18
      + 915 x(19)#19 + 147 x(20)#20 + 362 x(21)#21 + 237 x(22)#22 + 98 x(23)#23
      + 682 x(24)#24 + 478 x(25)#25 + 368 x(26)#26 + 608 x(27)#27
      + 809 x(28)#28 + 320 x(29)#29 + 690 x(30)#30 + 780 x(31)#31
      + 155 x(32)#32 + 158 x(33)#33 + 879 x(34)#34 + 442 x(35)#35
      + 870 x(36)#36 + 58 x(37)#37 + 236 x(38)#38 + 938 x(39)#39 + 35 x(40)#40
      + 993 x(41)#41 + 350 x(42)#42 + 429 x(43)#43 + 359 x(44)#44
      + 200 x(45)#45 + 358 x(46)#46 + 688 x(47)#47 + 551 x(48)#48
      + 322 x(49)#49 + 769 x(50)#50 + 279 x(51)#51 + 214 x(52)#52
      + 673 x(53)#53 + 664 x(54)#54 + 713 x(55)#55 + 542 x(56)#56
      + 562 x(57)#57 + 837 x(58)#58 + 949 x(59)#59 + 303 x(60)#60 + 55 x(61)#61
      + 192 x(62)#62 + 903 x(63)#63 + 315 x(64)#64 + 986 x(65)#65
      + 420 x(66)#66 + 939 x(67)#67 + 493 x(68)#68 + 63 x(69)#69 + 213 x(70)#70
      + 469 x(71)#71 + 933 x(72)#72 + 695 x(73)#73 + 198 x(74)#74
      + 118 x(75)#75 + 317 x(76)#76 + 179 x(77)#77 + 117 x(78)#78
      + 784 x(79)#79 + 880 x(80)#80 + 495 x(81)#81 + 685 x(82)#82 + 60 x(83)#83
      + 239 x(84)#84 + 554 x(85)#85 + 950 x(86)#86 + 207 x(87)#87
      + 923 x(88)#88 + 311 x(89)#89 + 222 x(90)#90 + 281 x(91)#91
      + 746 x(92)#92 + 61 x(93)#93 + 646 x(94)#94 + 673 x(95)#95 + 426 x(96)#96
      + 15 x(97)#97 + 813 x(98)#98 + 313 x(99)#99 <= 37520
 c7:  414 x(0)#0 + 618 x(1)#1 + 837 x(2)#2 + 85 x(3)#3 + 108 x(4)#4
      + 106 x(5)#5 + 311 x(6)#6 + 218 x(7)#7 + 506 x(8)#8 + 515 x(9)#9
      + 495 x(10)#10 + 945 x(11)#11 + 4 x(12)#12 + 512 x(13)#13 + 207 x(14)#14
      + 537 x(15)#15 + 846 x(16)#16 + 238 x(17)#17 + 485 x(18)#18
      + 790 x(19)#19 + 873 x(20)#20 + 222 x(21)#21 + 860 x(22)#22
      + 147 x(23)#23 + 528 x(24)#24 + 52 x(25)#25 + 11 x(26)#26 + 768 x(27)#27
      + 288 x(28)#28 + 50 x(29)#29 + 248 x(30)#30 + 180 x(31)#31 + 370 x(32)#32
      + 884 x(33)#33 + 978 x(34)#34 + 977 x(35)#35 + 991 x(36)#36
      + 154 x(37)#37 + 848 x(38)#38 + 761 x(39)#39 + 352 x(40)#40
      + 856 x(41)#41 + 317 x(42)#42 + 380 x(43)#43 + 562 x(44)#44
      + 532 x(45)#45 + 737 x(46)#46 + 199 x(47)#47 + 420 x(48)#48
      + 812 x(49)#49 + 622 x(50)#50 + 100 x(51)#51 + 441 x(52)#52
      + 422 x(53)#53 + 431 x(54)#54 + 301 x(55)#55 + 803 x(56)#56
      + 452 x(57)#57 + 976 x(58)#58 + 693 x(59)#59 + 310 x(60)#60 + 69 x(61)#61
      + 797 x(62)#62 + 668 x(63)#63 + 783 x(64)#64 + 805 x(65)#65
      + 237 x(66)#66 + 392 x(67)#67 + 856 x(68)#68 + 704 x(69)#69 + 83 x(70)#70
      + 755 x(71)#71 + 894 x(72)#72 + 241 x(73)#73 + 903 x(74)#74
      + 194 x(75)#75 + 965 x(76)#76 + 884 x(77)#77 + 553 x(78)#78
      + 511 x(79)#79 + 959 x(80)#80 + 77 x(81)#81 + 209 x(82)#82 + 299 x(83)#83
      + 585 x(84)#84 + 511 x(85)#85 + 30 x(86)#86 + 5 x(87)#87 + 338 x(88)#88
      + 772 x(89)#89 + 261 x(90)#90 + 848 x(91)#91 + 202 x(92)#92
      + 984 x(93)#93 + 718 x(94)#94 + 344 x(95)#95 + 71 x(96)#96 + 876 x(97)#97
      + 245 x(98)#98 + 243 x(99)#99 <= 37167
 c8:  511 x(0)#0 + 555 x(1)#1 + 933 x(2)#2 + 952 x(3)#3 + 468 x(4)#4
      + 654 x(5)#5 + 373 x(6)#6 + 545 x(7)#7 + 458 x(8)#8 + 295 x(9)#9
      + 816 x(10)#10 + 679 x(11)#11 + 225 x(12)#12 + 688 x(13)#13
      + 893 x(14)#14 + 673 x(15)#15 + 267 x(16)#16 + 954 x(17)#17
      + 171 x(18)#18 + 732 x(19)#19 + 893 x(20)#20 + 845 x(21)#21 + 81 x(22)#22
      + 458 x(23)#23 + 750 x(24)#24 + 338 x(25)#25 + 73 x(26)#26 + 290 x(27)#27
      + 801 x(28)#28 + 609 x(29)#29 + 363 x(30)#30 + 195 x(31)#31
      + 602 x(32)#32 + 371 x(33)#33 + 433 x(34)#34 + 544 x(35)#35
      + 258 x(36)#36 + 935 x(37)#37 + 38 x(38)#38 + 722 x(39)#39 + 130 x(40)#40
      + 126 x(41)#41 + 333 x(42)#42 + 888 x(43)#43 + 897 x(44)#44
      + 550 x(45)#45 + 283 x(46)#46 + 407 x(47)#47 + 822 x(48)#48
      + 150 x(49)#49 + 939 x(50)#50 + 162 x(51)#51 + 685 x(52)#52
      + 213 x(53)#53 + 918 x(54)#54 + 337 x(55)#55 + 809 x(56)#56
      + 843 x(57)#57 + 647 x(58)#58 + 793 x(59)#59 + 997 x(60)#60
      + 837 x(61)#61 + 983 x(62)#62 + 878 x(63)#63 + 851 x(64)#64
      + 521 x(65)#65 + 493 x(66)#66 + 235 x(67)#67 + 440 x(68)#68
      + 406 x(69)#69 + 779 x(70)#70 + 837 x(71)#71 + 606 x(72)#72
      + 440 x(73)#73 + 25 x(74)#74 + 531 x(75)#75 + 111 x(76)#76 + 886 x(77)#77
      + 18 x(78)#78 + 742 x(79)#79 + 586 x(80)#80 + 436 x(81)#81 + 73 x(82)#82
      + 256 x(83)#83 + 848 x(84)#84 + 279 x(85)#85 + 513 x(86)#86
      + 430 x(87)#87 + 539 x(88)#88 + 148 x(89)#89 + 263 x(90)#90
      + 348 x(91)#91 + 139 x(92)#92 + 871 x(93)#93 + 992 x(94)#94
      + 677 x(95)#95 + 48 x(96)#96 + 541 x(97)#97 + 210 x(98)#98 + 936 x(99)#99
      <= 39842
 c9:  647 x(0)#0 + 8 x(1)#1 + 204 x(2)#2 + 898 x(3)#3 + 349 x(4)#4 + 238 x(5)#5
      + 692 x(6)#6 + 742 x(7)#7 + 156 x(8)#8 + 168 x(9)#9 + 772 x(10)#10
      + 276 x(11)#11 + 272 x(12)#12 + 779 x(13)#13 + 955 x(14)#14
      + 644 x(15)#15 + 976 x(16)#16 + 921 x(17)#17 + 109 x(18)#18
      + 272 x(19)#19 + 477 x(20)#20 + 300 x(21)#21 + 698 x(22)#22
      + 197 x(23)#23 + 396 x(24)#24 + 648 x(25)#25 + 312 x(26)#26
      + 640 x(27)#27 + 291 x(28)#28 + 598 x(29)#29 + 256 x(30)#30
      + 537 x(31)#31 + 430 x(32)#32 + 631 x(33)#33 + 952 x(34)#34
      + 737 x(35)#35 + 895 x(36)#36 + 847 x(37)#37 + 549 x(38)#38 + 98 x(39)#39
      + 310 x(40)#40 + 189 x(41)#41 + 943 x(42)#42 + 202 x(43)#43
      + 662 x(44)#44 + 316 x(45)#45 + 82 x(46)#46 + 471 x(47)#47 + 580 x(48)#48
      + 875 x(49)#49 + 440 x(50)#50 + 993 x(51)#51 + 389 x(52)#52
      + 516 x(53)#53 + 840 x(54)#54 + 91 x(55)#55 + 623 x(56)#56 + 815 x(57)#57
      + 356 x(58)#58 + 407 x(59)#59 + 283 x(60)#60 + 796 x(61)#61
      + 950 x(62)#62 + 900 x(63)#63 + 797 x(64)#64 + 19 x(65)#65 + 624 x(66)#66
      + 9 x(67)#67 + 84 x(68)#68 + 603 x(69)#69 + 158 x(70)#70 + 223 x(71)#71
      + 311 x(72)#72 + 292 x(73)#73 + 428 x(74)#74 + 72 x(75)#75 + 846 x(76)#76
      + 350 x(77)#77 + 366 x(78)#78 + 321 x(79)#79 + 932 x(80)#80
      + 357 x(81)#81 + 43 x(82)#82 + 80 x(83)#83 + 957 x(84)#84 + 411 x(85)#85
      + 457 x(86)#86 + 685 x(87)#87 + 899 x(88)#88 + 340 x(89)#89
      + 503 x(90)#90 + 674 x(91)#91 + 729 x(92)#92 + 640 x(93)#93
      + 493 x(94)#94 + 635 x(95)#95 + 444 x(96)#96 + 162 x(97)#97
      + 620 x(98)#98 + 36 x(99)#99 <= 36897
 c10: 364 x(0)#0 + 707 x(1)#1 + 724 x(2)#2 + 645 x(3)#3 + 278 x(4)#4
      + 70 x(5)#5 + 154 x(6)#6 + 566 x(7)#7 + 215 x(8)#8 + 353 x(9)#9
      + 830 x(10)#10 + 58 x(11)#11 + 920 x(12)#12 + 673 x(13)#13 + 414 x(14)#14
      + 613 x(15)#15 + 860 x(16)#16 + 538 x(17)#17 + 428 x(18)#18
      + 916 x(19)#19 + 458 x(20)#20 + 512 x(21)#21 + 463 x(22)#22
      + 801 x(23)#23 + 243 x(24)#24 + 569 x(25)#25 + 500 x(26)#26
      + 556 x(27)#27 + 291 x(28)#28 + 375 x(29)#29 + 603 x(30)#30
      + 193 x(31)#31 + 952 x(32)#32 + 526 x(33)#33 + 106 x(34)#34
      + 404 x(35)#35 + 91 x(36)#36 + 666 x(37)#37 + 314 x(38)#38 + 420 x(39)#39
      + x(40)#40 + 198 x(41)#41 + 611 x(42)#42 + 217 x(43)#43 + 424 x(44)#44
      + 604 x(45)#45 + 80 x(46)#46 + 799 x(47)#47 + 386 x(48)#48 + 848 x(49)#49
      + 818 x(50)#50 + 697 x(51)#51 + 524 x(52)#52 + 99 x(53)#53 + 677 x(54)#54
      + 972 x(55)#55 + 675 x(56)#56 + 655 x(57)#57 + 933 x(58)#58
      + 456 x(59)#59 + 643 x(60)#60 + 983 x(61)#61 + 198 x(62)#62
      + 215 x(63)#63 + 671 x(64)#64 + 597 x(65)#65 + 270 x(66)#66
      + 515 x(67)#67 + 551 x(68)#68 + 545 x(69)#69 + 596 x(70)#70
      + 498 x(71)#71 + 508 x(72)#72 + 460 x(73)#73 + 261 x(74)#74
      + 848 x(75)#75 + 13 x(76)#76 + 24 x(77)#77 + 834 x(78)#78 + 672 x(79)#79
      + 128 x(80)#80 + 229 x(81)#81 + 266 x(82)#82 + 378 x(83)#83
      + 471 x(84)#84 + 187 x(85)#85 + 545 x(86)#86 + 963 x(87)#87 + 16 x(88)#88
      + 676 x(89)#89 + 398 x(90)#90 + 104 x(91)#91 + 330 x(92)#92
      + 869 x(93)#93 + 597 x(94)#94 + 200 x(95)#95 + 648 x(96)#96
      + 391 x(97)#97 + 65 x(98)#98 + 972 x(99)#99 <= 36284
Bounds
 0 <= x(0)#0 <= 1
 0 <= x(1)#1 <= 1
 0 <= x(2)#2 <= 1
 0 <= x(3)#3 <= 1
 0 <= x(4)#4 <= 1
 0 <= x(5)#5 <= 1
 0 <= x(6)#6 <= 1
 0 <= x(7)#7 <= 1
 0 <= x(8)#8 <= 1
 0 <= x(9)#9 <= 1
 0 <= x(10)#10 <= 1
 0 <= x(11)#11 <= 1
 0 <= x(12)#12 <= 1
 0 <= x(13)#13 <= 1
 0 <= x(14)#14 <= 1
 0 <= x(15)#15 <= 1
 0 <= x(16)#16 <= 1
 0 <= x(17)#17 <= 1
 0 <= x(18)#18 <= 1
 0 <= x(19)#19 <= 1
 0 <= x(20)#20 <= 1
 0 <= x(21)#21 <= 1
 0 <= x(22)#22 <= 1
 0 <= x(23)#23 <= 1
 0 <= x(24)#24 <= 1
 0 <= x(25)#25 <= 1
 0 <= x(26)#26 <= 1
 0 <= x(27)#27 <= 1
 0 <= x(28)#28 <= 1
 0 <= x(29)#29 <= 1
 0 <= x(30)#30 <= 1
 0 <= x(31)#31 <= 1
 0 <= x(32)#32 <= 1
 0 <= x(33)#33 <= 1
 0 <= x(34)#34 <= 1
 0 <= x(35)#35 <= 1
 0 <= x(36)#36 <= 1
 0 <= x(37)#37 <= 1
 0 <= x(38)#38 <= 1
 0 <= x(39)#39 <= 1
 0 <= x(40)#40 <= 1
 0 <= x(41)#41 <= 1
 0 <= x(42)#42 <= 1
 0 <= x(43)#43 <= 1
 0 <= x(44)#44 <= 1
 0 <= x(45)#45 <= 1
 0 <= x(46)#46 <= 1
 0 <= x(47)#47 <= 1
 0 <= x(48)#48 <= 1
 0 <= x(49)#49 <= 1
 0 <= x(50)#50 <= 1
 0 <= x(51)#51 <= 1
 0 <= x(52)#52 <= 1
 0 <= x(53)#53 <= 1
 0 <= x(54)#54 <= 1
 0 <= x(55)#55 <= 1
 0 <= x(56)#56 <= 1
 0 <= x(57)#57 <= 1
 0 <= x(58)#58 <= 1
 0 <= x(59)#59 <= 1
 0 <= x(60)#60 <= 1
 0 <= x(61)#61 <= 1
 0 <= x(62)#62 <= 1
 0 <= x(63)#63 <= 1
 0 <= x(64)#64 <= 1
 0 <= x(65)#65 <= 1
 0 <= x(66)#66 <= 1
 0 <= x(67)#67 <= 1
 0 <= x(68)#68 <= 1
 0 <= x(69)#69 <= 1
 0 <= x(70)#70 <= 1
 0 <= x(71)#71 <= 1
 0 <= x(72)#72 <= 1
 0 <= x(73)#73 <= 1
 0 <= x(74)#74 <= 1
 0 <= x(75)#75 <= 1
 0 <= x(76)#76 <= 1
 0 <= x(77)#77 <= 1
 0 <= x(78)#78 <= 1
 0 <= x(79)#79 <= 1
 0 <= x(80)#80 <= 1
 0 <= x(81)#81 <= 1
 0 <= x(82)#82 <= 1
 0 <= x(83)#83 <= 1
 0 <= x(84)#84 <= 1
 0 <= x(85)#85 <= 1
 0 <= x(86)#86 <= 1
 0 <= x(87)#87 <= 1
 0 <= x(88)#88 <= 1
 0 <= x(89)#89 <= 1
 0 <= x(90)#90 <= 1
 0 <= x(91)#91 <= 1
 0 <= x(92)#92 <= 1
 0 <= x(93)#93 <= 1
 0 <= x(94)#94 <= 1
 0 <= x(95)#95 <= 1
 0 <= x(96)#96 <= 1
 0 <= x(97)#97 <= 1
 0 <= x(98)#98 <= 1
 0 <= x(99)#99 <= 1
Generals
 x(0)#0  x(1)#1  x(2)#2  x(3)#3  x(4)#4  x(5)#5  x(6)#6  x(7)#7  x(8)#8 
 x(9)#9  x(10)#10  x(11)#11  x(12)#12  x(13)#13  x(14)#14  x(15)#15  x(16)#16 
 x(17)#17  x(18)#18  x(19)#19  x(20)#20  x(21)#21  x(22)#22  x(23)#23 
 x(24)#24  x(25)#25  x(26)#26  x(27)#27  x(28)#28  x(29)#29  x(30)#30 
 x(31)#31  x(32)#32  x(33)#33  x(34)#34  x(35)#35  x(36)#36  x(37)#37 
 x(38)#38  x(39)#39  x(40)#40  x(41)#41  x(42)#42  x(43)#43  x(44)#44 
 x(45)#45  x(46)#46  x(47)#47  x(48)#48  x(49)#49  x(50)#50  x(51)#51 
 x(52)#52  x(53)#53  x(54)#54  x(55)#55  x(56)#56  x(57)#57  x(58)#58 
 x(59)#59  x(60)#60  x(61)#61  x(62)#62  x(63)#63  x(64)#64  x(65)#65 
 x(66)#66  x(67)#67  x(68)#68  x(69)#69  x(70)#70  x(71)#71  x(72)#72 
 x(73)#73  x(74)#74  x(75)#75  x(76)#76  x(77)#77  x(78)#78  x(79)#79 
 x(80)#80  x(81)#81  x(82)#82  x(83)#83  x(84)#84  x(85)#85  x(86)#86 
 x(87)#87  x(88)#88  x(89)#89  x(90)#90  x(91)#91  x(92)#92  x(93)#93 
 x(94)#94  x(95)#95  x(96)#96  x(97)#97  x(98)#98  x(99)#99 
End
